128143.25
43 44 45 46 47 169 168 167 166 165 164 63 65 64 163 42 41 40 39 38 140 139 138 17 16 15 14 13 113 114 115 116 117 118 119 19 20 18 120 121 122 123 124 125 127 128 126 23 24 25 26 27 150 151 152 153 154 155 32 31 30 29 28 129 130 131 132 133 134 135 136 137 33 34 35 36 37 162 58 60 59 161 160 159 158 157 156 53 54 55 56 57 181 182 183 184 185 186 62 61 187 83 84 85 86 87 210 211 212 108 109 110 111 112 12 11 10 9 8 7 107 106 6 5 4 3 2 1 0 224 102 101 100 99 98 200 201 202 203 204 205 206 103 105 104 208 209 207 82 81 80 79 78 180 179 178 177 176 175 73 74 75 76 77 199 198 197 196 195 194 93 94 95 96 97 221 223 222 220 219 218 217 216 215 214 213 92 91 90 89 88 188 67 66 189 190 191 192 193 72 71 70 69 68 170 171 172 173 174 52 51 50 49 48 149 148 147 146 145 22 21 142 141 143 144